
List of user-set options:

                                    Name   Value                used
                           compl_inf_tol = 1                     yes
                         constr_viol_tol = 1                     yes
                            dual_inf_tol = 1000                  yes
                           linear_solver = ma97                  yes
                              ma86_small = 1e-30                  no
                                  ma86_u = 0.0001                 no
                              ma97_order = best                  yes
                              ma97_small = 1e-30                 yes
                            ma97_switch1 = at_start              yes
                            ma97_switch2 = od_hd_reuse           yes
                                  ma97_u = 1e-06                 yes
                               ma97_umax = 0.5                   yes
                                max_iter = 1000                  yes
                    max_refinement_steps = 20                    yes
                    min_refinement_steps = 5                     yes
                                 mu_init = 1e-06                 yes
           mu_superlinear_decrease_power = 1.25                  yes
                   nlp_scaling_min_value = 1e-08                 yes
                        option_file_name = Preset_Case:_855_NCP.opt  yes
                             output_file = ./tmp/Preset_Case:_855_NCP.output  yes
                      print_user_options = yes                   yes
        required_infeasibility_reduction = 1                      no
                                     tol = 1e-08                 yes
                   warm_start_bound_frac = 1e-20                 yes
                   warm_start_bound_push = 1e-20                 yes
                   warm_start_init_point = yes                   yes
              warm_start_mult_bound_push = 1e-20                 yes
                warm_start_mult_init_max = 1e+40                 yes
             warm_start_slack_bound_frac = 1e-20                 yes
             warm_start_slack_bound_push = 1e-20                 yes

******************************************************************************
This program contains Ipopt, a library for large-scale nonlinear optimization.
 Ipopt is released as open source code under the Eclipse Public License (EPL).
         For more information visit http://projects.coin-or.org/Ipopt
******************************************************************************

This is Ipopt version 3.12.10, running with linear solver ma97.

Number of nonzeros in equality constraint Jacobian...:   117167
Number of nonzeros in inequality constraint Jacobian.:      213
Number of nonzeros in Lagrangian Hessian.............:    47513

Total number of variables............................:    29977
                     variables with only lower bounds:    11312
                variables with lower and upper bounds:    15135
                     variables with only upper bounds:        0
Total number of equality constraints.................:    29864
Total number of inequality constraints...............:       25
        inequality constraints with only lower bounds:        4
   inequality constraints with lower and upper bounds:        0
        inequality constraints with only upper bounds:       21

iter    objective    inf_pr   inf_du lg(mu)  ||d||  lg(rg) alpha_du alpha_pr  ls
   0 -1.6863217e-01 3.35e-01 2.00e+00  -6.0 0.00e+00    -  0.00e+00 0.00e+00   0
In iteration 0, 9 Slacks too small, adjusting variable bounds
   1 -1.6863217e-01 3.35e-01 7.67e+02  -6.0 1.15e+10    -  7.66e-14 3.74e-19h  1
   2 -1.6863163e-01 3.35e-01 8.41e+02  -6.0 7.30e+01    -  1.00e-02 1.19e-05f  1
   3 -1.6862950e-01 3.35e-01 8.37e+02  -6.0 7.71e+01    -  8.64e-03 4.56e-05h  1
   4 -1.6694033e-01 3.27e-01 8.23e+02  -6.0 2.72e+02    -  1.15e-02 2.37e-02h  1
   5 -1.6568128e-01 3.19e-01 7.79e+02  -6.0 6.78e+01    -  7.75e-02 2.48e-02h  2
   6 -1.6450497e-01 3.12e-01 7.35e+02  -6.0 8.67e+01    -  9.60e-02 2.18e-02h  2
   7 -1.6242281e-01 3.00e-01 7.10e+02  -6.0 1.26e+02    -  5.48e-02 3.72e-02h  1
   8 -1.6079770e-01 2.91e-01 6.88e+02  -6.0 1.31e+02    -  7.20e-02 2.92e-02h  2
   9 -1.5941820e-01 2.84e-01 6.69e+02  -6.0 1.34e+02    -  6.56e-02 2.53e-02h  2
iter    objective    inf_pr   inf_du lg(mu)  ||d||  lg(rg) alpha_du alpha_pr  ls
  10 -1.5705850e-01 2.72e-01 6.41e+02  -6.0 1.34e+02    -  2.87e-02 4.40e-02h  1
  11 -1.5449534e-01 2.59e-01 9.14e+04  -6.0 1.34e+02    -  7.52e-02 4.72e-02h  4
  12 -1.5278753e-01 2.50e-01 1.42e+05  -6.0 1.33e+02    -  4.86e-02 3.31e-02h  2
  13 -1.5134898e-01 2.42e-01 2.14e+05  -6.0 1.14e+02    -  5.79e-02 3.12e-02h  3
  14 -1.4965513e-01 2.33e-01 2.31e+05  -6.0 1.17e+02    -  4.41e-02 3.68e-02h  3
  15 -1.4773359e-01 2.23e-01 8.33e+05  -6.0 1.08e+02    -  2.28e-01 4.49e-02h  3
  16 -1.4596777e-01 2.13e-01 8.36e+05  -6.0 1.02e+02    -  5.76e-02 4.34e-02h  4
  17 -1.4399547e-01 2.02e-01 1.14e+06  -6.0 9.09e+01    -  1.65e-01 5.04e-02h  3
  18 -1.4222477e-01 1.93e-01 1.35e+06  -6.0 9.16e+01    -  1.42e-01 4.89e-02h  4
  19 -1.4064603e-01 1.84e-01 2.10e+06  -6.0 8.52e+01    -  3.37e-01 4.58e-02h  4
iter    objective    inf_pr   inf_du lg(mu)  ||d||  lg(rg) alpha_du alpha_pr  ls
  20 -1.3909528e-01 1.75e-01 2.06e+06  -6.0 8.76e+01    -  7.50e-02 4.63e-02h  2
  21 -1.3898509e-01 1.75e-01 2.58e+06  -6.0 9.53e+01    -  2.49e-01 3.19e-03h  1
  22 -1.3711470e-01 1.65e-01 2.86e+06  -6.0 9.21e+01    -  3.11e-01 5.66e-02h  4
  23 -1.3500694e-01 1.74e-01 3.02e+06  -6.0 1.01e+02    -  2.88e-01 6.25e-02h  4
  24 -1.3393190e-01 1.74e-01 3.04e+06  -6.0 1.10e+02    -  1.15e-01 3.04e-02h  4
  25 -1.3305073e-01 1.73e-01 3.22e+06  -6.0 1.11e+02    -  2.10e-01 2.52e-02h  4
  26 -1.3200535e-01 1.73e-01 3.41e+06  -6.0 1.21e+02    -  4.68e-01 3.19e-02h  4
  27 -1.3200122e-01 1.73e-01 3.25e+06  -6.0 7.45e+02    -  5.32e-03 3.25e-05h  9
  28 -1.3199207e-01 1.73e-01 2.50e+06  -6.0 4.05e+02    -  4.97e-02 1.21e-04h  8
  29 -1.3134638e-01 1.69e-01 2.42e+06  -6.0 4.38e+01  -4.0 1.57e-02 2.61e-02h  1
iter    objective    inf_pr   inf_du lg(mu)  ||d||  lg(rg) alpha_du alpha_pr  ls
  30 -1.3131436e-01 1.69e-01 2.58e+06  -6.0 2.57e+02  -4.5 6.13e-02 5.88e-04h  7
  31 -1.3131349e-01 1.69e-01 2.63e+06  -6.0 2.76e+01  -3.1 5.34e-03 3.72e-05h  1
  32 -1.2953072e-01 1.65e-01 3.41e+06  -6.0 2.78e+01  -3.6 3.59e-01 7.59e-02h  1
  33 -1.2889688e-01 1.62e-01 3.33e+06  -6.0 3.57e+01  -4.1 3.33e-02 2.59e-02h  5
  34 -1.2751710e-01 1.57e-01 3.72e+06  -6.0 2.67e+01  -3.7 2.62e-01 6.40e-02h  3
  35 -1.2725646e-01 1.55e-01 3.64e+06  -6.0 6.22e+01  -4.2 4.12e-02 1.08e-02h  5
  36 -1.2626708e-01 1.51e-01 4.65e+06  -6.0 2.59e+01  -3.7 4.87e-01 4.90e-02h  4
  37 -1.2624922e-01 1.51e-01 4.46e+06  -6.0 3.35e+02  -4.2 9.76e-03 3.93e-04h  7
  38 -1.2563608e-01 1.47e-01 4.86e+06  -6.0 2.56e+01  -3.8 3.88e-01 3.16e-02h  5
  39 -1.2466309e-01 1.42e-01 7.06e+06  -6.0 2.54e+01  -3.4 4.50e-01 5.31e-02h  4
iter    objective    inf_pr   inf_du lg(mu)  ||d||  lg(rg) alpha_du alpha_pr  ls
  40 -1.2439292e-01 1.40e-01 6.45e+06  -6.0 3.27e+01  -3.8 3.25e-01 1.46e-02h  5
  41 -1.2318126e-01 1.34e-01 8.07e+06  -6.0 2.48e+01  -3.4 4.97e-01 7.08e-02h  4
  42 -1.2300602e-01 1.33e-01 7.58e+06  -6.0 4.33e+01  -3.9 1.46e-01 9.91e-03h  5
  43 -1.1452053e-01 2.18e+00 4.63e+06  -6.0 2.38e+01  -3.5 7.79e-01 5.31e-01w  1
  44 -1.1170210e-01 2.02e+00 2.42e+06  -6.0 3.33e+01  -3.9 1.58e-01 2.01e-01w  1
  45 -1.0994169e-01 1.79e+00 2.50e+06  -6.0 3.51e+01  -3.5 7.91e-02 1.15e-01w  1
  46 -1.2247568e-01 1.30e-01 1.06e+07  -6.0 6.57e+01  -4.0 7.79e-01 3.32e-02h  4
  47 -1.2175398e-01 1.25e-01 1.04e+07  -6.0 2.34e+01  -3.6 5.18e-01 4.72e-02h  4
  48 -1.2140759e-01 1.23e-01 8.51e+06  -6.0 3.05e+01  -4.0 5.21e-01 2.37e-02h  4
  49 -1.2088356e-01 1.19e-01 1.02e+07  -6.0 2.24e+01  -3.6 4.77e-01 3.81e-02h  5
iter    objective    inf_pr   inf_du lg(mu)  ||d||  lg(rg) alpha_du alpha_pr  ls
  50 -1.2036187e-01 1.15e-01 1.01e+07  -6.0 2.09e+01  -4.1 8.72e-01 4.09e-02h  5
  51 -1.1963281e-01 1.27e-01 1.12e+07  -6.0 2.16e+01  -3.7 3.39e-01 5.67e-02h  4
  52 -1.1920687e-01 1.34e-01 1.32e+07  -6.0 2.32e+01  -4.1 9.28e-01 3.28e-02h  5
  53 -1.1836140e-01 1.67e-01 1.44e+07  -6.0 2.00e+01  -3.7 3.68e-01 6.71e-02h  3
  54 -1.1806545e-01 1.73e-01 1.63e+07  -6.0 3.55e+01  -4.2 6.47e-01 2.06e-02h  4
  55 -1.1744914e-01 1.90e-01 1.97e+07  -6.0 2.21e+01  -3.8 5.31e-01 4.87e-02h  3
  56 -1.1654888e-01 3.58e-01 1.90e+07  -6.0 6.79e+01  -4.2 2.51e-01 4.86e-02w  1
  57 -1.1321842e-01 7.37e-01 2.56e+07  -6.0 2.45e+01  -3.8 1.00e+00 2.44e-01w  1
  58 -1.1188704e-01 4.03e+00 2.42e+07  -6.0 1.66e+02  -4.3 5.96e-02 5.81e-02w  1
  59 -1.1733661e-01 1.92e-01 1.99e+07  -6.0 4.97e+01  -3.9 2.51e-01 6.08e-03h  3
iter    objective    inf_pr   inf_du lg(mu)  ||d||  lg(rg) alpha_du alpha_pr  ls
  60 -1.1686105e-01 1.97e-01 3.98e+07  -6.0 1.90e+01  -3.4 1.00e+00 3.59e-02h  3
  61 -1.1642111e-01 2.01e-01 3.53e+07  -6.0 3.04e+01  -3.9 4.96e-01 3.37e-02h  3
  62 -1.1590108e-01 2.05e-01 5.27e+07  -6.0 2.41e+01  -3.5 1.00e+00 3.90e-02h  4
  63 -1.1558853e-01 2.03e-01 4.86e+07  -6.0 3.30e+01  -4.0 3.51e-01 2.17e-02h  3
  64 -1.1468125e-01 2.15e-01 6.47e+07  -6.0 2.74e+01  -3.5 1.00e+00 6.33e-02h  3
  65 -1.1403273e-01 1.92e-01 6.21e+07  -6.0 3.57e+01  -4.0 3.41e-01 3.94e-02h  3
  66 -1.1294397e-01 2.01e-01 9.60e+07  -6.0 2.94e+01  -3.6 1.00e+00 6.87e-02h  2
  67 -1.1264647e-01 1.98e-01 1.04e+08  -6.0 6.06e+01  -4.1 5.21e-01 1.58e-02h  4
  68 -1.1230075e-01 1.95e-01 1.80e+08  -6.0 3.87e+01  -3.6 1.00e+00 1.93e-02h  4
  69 -1.1095723e-01 4.40e-01 1.56e+08  -6.0 8.91e+01  -4.1 3.95e-01 6.84e-02w  1
iter    objective    inf_pr   inf_du lg(mu)  ||d||  lg(rg) alpha_du alpha_pr  ls
  70 -1.0782089e-01 5.28e-01 1.06e+08  -6.0 5.73e+01  -3.7 3.48e-02 1.65e-01w  1
  71 -1.0737763e-01 5.11e-01 3.63e+08  -6.0 4.99e+01  -3.3 3.58e-01 2.95e-02w  1
  72 -1.1213281e-01 1.94e-01 1.65e+08  -6.0 7.22e+01  -3.7 3.95e-01 8.56e-03h  3
  73 -1.1206513e-01 1.93e-01 1.57e+08  -6.0 1.24e+02  -4.2 3.69e-01 3.27e-03h  5
  74 -1.1189117e-01 1.91e-01 2.00e+08  -6.0 5.82e+01  -3.8 1.00e+00 9.41e-03h  4
  75 -1.1158509e-01 1.69e-01 1.97e+08  -6.0 9.29e+01  -4.3 6.34e-03 1.83e-02h  4
  76 -1.1087532e-01 1.63e-01 2.24e+08  -6.0 8.07e+01  -3.8 1.00e+00 3.81e-02h  2
  77 -1.0941788e-01 1.49e-01 2.07e+08  -6.0 6.04e+01  -3.4 8.56e-02 8.25e-02h  2
  78 -1.0854592e-01 1.42e-01 4.04e+08  -6.0 9.53e+01  -3.9 8.19e-01 5.28e-02h  1
  79 -1.0821499e-01 1.39e-01 7.76e+08  -6.0 7.06e+01  -3.5 6.66e-01 2.65e-02h  4
iter    objective    inf_pr   inf_du lg(mu)  ||d||  lg(rg) alpha_du alpha_pr  ls
  80 -1.0808487e-01 1.39e-01 7.79e+08  -6.0 1.17e+02  -3.9 3.24e-01 1.26e-02h  5
  81 -1.0781001e-01 1.39e-01 8.52e+08  -6.0 8.06e+01  -3.5 2.01e-01 2.34e-02h  4
  82 -1.0721265e-01 1.34e-01 1.79e+09  -6.0 5.20e+01  -3.1 8.13e-01 5.11e-02h  3
  83 -1.0711563e-01 1.32e-01 1.82e+09  -6.0 8.48e+01  -3.6 7.71e-02 9.62e-03h  5
  84 -1.0574657e-01 1.22e-01 2.30e+09  -6.0 5.04e+01  -3.1 7.11e-01 1.40e-01H  1
  85 -1.0574704e-01 1.22e-01 7.04e+08  -6.0 2.11e+03  -3.6 1.24e-03 2.05e-05h  2
  86 -1.0557497e-01 1.21e-01 6.95e+08  -6.0 1.30e+02  -3.2 1.01e-03 1.32e-02h  4
  87 -1.0491796e-01 1.17e-01 6.65e+08  -6.0 9.30e+01  -2.8 3.09e-01 4.31e-02h  2
  88 -1.0485910e-01 1.17e-01 6.60e+08  -6.0 1.46e+02  -3.3 5.92e-02 6.94e-03h  4
  89 -1.0471660e-01 1.16e-01 6.52e+08  -6.0 1.29e+02  -2.8 8.70e-01 1.24e-02h  3
iter    objective    inf_pr   inf_du lg(mu)  ||d||  lg(rg) alpha_du alpha_pr  ls
  90 -1.0468141e-01 1.16e-01 6.48e+08  -6.0 1.53e+02  -3.3 8.04e-02 5.87e-03h  6
  91 -1.0461172e-01 1.16e-01 6.44e+08  -6.0 1.47e+02  -2.9 1.00e+00 7.54e-03h  4
  92 -1.0458861e-01 1.15e-01 6.40e+08  -6.0 1.62e+02  -3.4 6.98e-02 5.61e-03h  7
  93 -1.0448794e-01 1.14e-01 6.31e+08  -6.0 1.49e+02  -2.9 1.33e-01 1.36e-02h  6
  94 -1.0448629e-01 1.14e-01 6.29e+08  -6.0 2.05e+02  -3.4 5.93e-02 3.98e-03h  7
  95 -1.0076148e-01 7.51e+00 2.41e+08  -6.0 1.43e+02  -3.0 9.93e-01 6.15e-01w  1
  96 -1.0229377e-01 5.82e+00 1.88e+08  -6.0 3.73e+01  -2.6 5.87e-06 2.19e-01w  1
  97 -1.0229377e-01 5.82e+00 1.88e+08  -6.0 6.01e+01  -3.0 1.25e-01 1.21e-06w  1
  98 -1.0442809e-01 1.14e-01 6.23e+08  -6.0 1.18e+02  -3.5 9.93e-01 9.61e-03h  6
  99 -1.0438756e-01 1.13e-01 6.18e+08  -6.0 1.38e+02  -3.1 1.50e-01 8.29e-03h  7
iter    objective    inf_pr   inf_du lg(mu)  ||d||  lg(rg) alpha_du alpha_pr  ls
 100 -1.0447546e-01 1.14e-01 6.17e+08  -6.0 6.73e+03  -3.6 1.28e-03 2.64e-04h  6
 101 -1.0445101e-01 1.14e-01 6.13e+08  -6.0 1.31e+02  -3.1 1.00e+00 7.39e-03h  7
 102 -1.0428746e-01 1.12e-01 6.00e+08  -6.0 1.11e+02  -2.7 1.50e-01 2.15e-02h  3
 103 -1.0428534e-01 1.12e-01 5.96e+08  -6.0 1.52e+02  -3.2 1.15e-01 5.77e-03h  7
 104 -1.0422558e-01 1.11e-01 5.89e+08  -6.0 1.14e+02  -2.8 1.00e+00 1.13e-02h  4
 105 -1.0423818e-01 1.11e-01 5.87e+08  -6.0 1.73e+02  -3.2 8.69e-02 4.75e-03h  7
 106 -1.0419010e-01 1.10e-01 5.78e+08  -6.0 1.19e+02  -2.8 4.49e-01 1.50e-02h  6
 107 -1.0422026e-01 1.10e-01 5.76e+08  -6.0 2.13e+02  -3.3 6.83e-02 3.54e-03h  7
 108 -1.0319994e-01 5.51e+00 2.50e+08  -6.0 1.12e+02  -2.9 1.00e+00 5.66e-01w  1
 109 -1.0319996e-01 5.51e+00 2.50e+08  -6.0 3.10e+01  -2.4 5.56e-02 3.36e-06w  1
iter    objective    inf_pr   inf_du lg(mu)  ||d||  lg(rg) alpha_du alpha_pr  ls
 110 -1.0690570e-01 3.86e+00 1.78e+08  -6.0 3.42e+01  -2.0 9.83e-02 2.85e-01w  1
 111 -1.0420432e-01 1.10e-01 5.71e+08  -6.0 1.51e+02  -2.5 1.00e+00 8.84e-03h  6
 112 -1.0420179e-01 1.11e-01 5.66e+08  -6.0 1.21e+02  -3.0 1.92e-01 7.67e-03h  7
 113 -1.0412331e-01 1.09e-01 5.56e+08  -6.0 1.01e+02  -2.5 1.00e+00 1.84e-02h  3
 114 -1.0414186e-01 1.15e-01 5.54e+08  -6.0 1.50e+02  -3.0 8.86e-03 4.06e-03h  7
 115 -1.0412032e-01 1.15e-01 5.47e+08  -6.0 1.05e+02  -2.6 4.75e-01 1.21e-02h  5
 116 -1.0413933e-01 1.22e-01 5.46e+08  -6.0 5.06e+02  -3.1 2.07e-03 9.58e-04h  7
 117 -1.0412708e-01 1.24e-01 5.37e+08  -6.0 1.03e+02  -2.6 1.00e+00 1.78e-02h  6
 118 -1.0402495e-01 1.23e-01 5.20e+08  -6.0 9.02e+01  -2.2 5.79e-01 3.12e-02h  3
 119 -1.0404537e-01 1.25e-01 5.16e+08  -6.0 1.11e+02  -2.7 4.47e-02 6.99e-03h  7
iter    objective    inf_pr   inf_du lg(mu)  ||d||  lg(rg) alpha_du alpha_pr  ls
 120 -1.0403979e-01 1.25e-01 5.08e+08  -6.0 9.11e+01  -2.3 1.00e+00 1.56e-02h  6
 121 -1.0592687e-01 1.96e+01 3.33e+08  -6.0 1.20e+02  -2.7 2.44e-02 3.44e-01w  1
 122 -1.0603184e-01 1.92e+01 3.27e+08  -6.0 1.23e+01   0.4 1.05e-02 1.99e-02w  1
 123 -1.0623582e-01 1.88e+01 3.20e+08  -6.0 7.19e+01   0.8 1.28e-05 1.89e-02w  1
 124 -1.0406928e-01 1.29e-01 5.06e+08  -6.0 1.34e+01   2.1 2.44e-02 5.37e-03h  6
 125 -1.0406095e-01 1.29e-01 5.05e+08  -6.0 1.96e+01   1.7 7.56e-04 1.37e-03h  1
 126 -1.0399175e-01 1.28e-01 5.01e+08  -6.0 1.99e+01   1.2 2.15e-05 8.11e-03h  1
 127 -1.0382086e-01 1.26e-01 4.91e+08  -6.0 1.62e+01   0.7 1.32e-01 2.01e-02h  1
 128 -1.0380627e-01 1.26e-01 4.90e+08  -6.0 2.77e+01   0.2 2.02e-01 2.26e-03h  1
 129r-1.0380627e-01 1.26e-01 1.00e+03  -1.4 0.00e+00  -0.2 0.00e+00 3.82e-07R  4
iter    objective    inf_pr   inf_du lg(mu)  ||d||  lg(rg) alpha_du alpha_pr  ls
 130r-1.0368012e-01 1.19e-01 1.13e+03  -1.4 2.35e+03    -  9.04e-05 5.36e-05f  1
 131 -1.0367922e-01 1.19e-01 3.91e+07  -6.0 6.46e+01    -  3.95e-01 2.42e-04h  1
 132 -1.0376946e-01 1.15e-01 5.03e+09  -6.0 5.30e+02    -  2.52e-04 3.24e-02h  3
 133 -1.0378362e-01 1.14e-01 4.98e+09  -6.0 1.97e+02    -  3.23e-02 9.38e-03h  1
 134 -1.0389830e-01 1.10e-01 4.71e+09  -6.0 2.02e+02    -  4.51e-02 5.38e-02h  2
 135 -1.0435438e-01 1.06e-01 4.13e+09  -6.0 2.04e+02    -  2.17e-01 1.23e-01h  1
 136 -1.0531808e-01 1.10e-01 3.39e+09  -6.0 1.90e+02    -  3.16e-01 1.79e-01h  2
 137 -1.0609746e-01 1.04e-01 2.94e+09  -6.0 1.55e+02    -  4.14e-01 1.33e-01h  3
 138 -1.0921917e-01 1.39e-01 1.49e+09  -6.0 1.26e+02    -  2.08e-01 4.93e-01H  1
 139 -1.0967570e-01 1.33e-01 1.08e+09  -6.0 9.42e+01    -  1.93e-01 2.77e-01h  1
iter    objective    inf_pr   inf_du lg(mu)  ||d||  lg(rg) alpha_du alpha_pr  ls
 140 -1.0881460e-01 9.79e-03 4.21e+05  -6.0 7.84e+01    -  1.14e-02 1.00e+00H  1
 141 -1.0896981e-01 1.45e-04 1.15e+02  -6.0 6.50e-01    -  9.86e-01 1.00e+00h  1
 142 -1.1867738e-01 2.72e-02 5.18e+01  -6.0 4.49e+01    -  7.21e-01 1.00e+00H  1
 143 -1.2059248e-01 3.88e-02 4.34e+01  -6.0 1.43e+02    -  3.40e-01 1.74e-01h  3
 144 -1.2273412e-01 1.17e-01 3.76e+01  -6.0 2.07e+02    -  4.09e-01 1.51e-01h  3
 145 -1.2410767e-01 1.37e-01 3.52e+01  -6.0 3.04e+02    -  8.62e-02 6.99e-02h  4
 146 -1.2479290e-01 1.40e-01 3.41e+01  -6.0 3.37e+02    -  4.99e-01 3.28e-02h  5
 147 -1.2865795e-01 9.89e-01 3.27e+01  -6.0 7.71e+02    -  2.06e-01 9.09e-02h  1
 148 -1.3198634e-01 1.02e+00 3.23e+01  -6.0 1.21e+03    -  2.16e-01 5.28e-02f  1
 149 -1.4147841e-01 2.89e+00 5.80e+01  -6.0 1.29e+03    -  2.79e-01 1.34e-01h  1
iter    objective    inf_pr   inf_du lg(mu)  ||d||  lg(rg) alpha_du alpha_pr  ls
 150 -1.4148221e-01 2.86e+00 5.77e+01  -6.0 1.84e+00  -0.7 4.29e-03 1.14e-02h  1
 151 -1.4148241e-01 2.86e+00 5.67e+01  -6.0 1.71e+00  -1.2 2.09e-02 6.99e-04h  1
 152 -1.4148987e-01 2.78e+00 5.59e+01  -6.0 1.80e+00  -1.7 1.07e-02 2.59e-02f  1
 153 -1.4150033e-01 2.69e+00 5.28e+01  -6.0 1.78e+00  -2.1 5.96e-02 3.35e-02h  1
 154 -1.4165194e-01 1.52e+00 4.38e+01  -6.0 1.75e+00  -2.6 1.27e-01 4.35e-01f  1
 155 -1.4198645e-01 2.67e-03 7.82e+01  -6.0 9.90e-01  -3.1 6.88e-01 1.00e+00h  1
 156 -1.4200911e-01 2.43e-03 7.01e+01  -6.0 2.63e-01  -3.6 3.77e-01 1.04e-01h  1
 157 -1.4209218e-01 1.69e-03 4.14e+01  -6.0 5.80e-01  -4.1 4.88e-01 4.09e-01f  1
 158 -1.4216717e-01 1.23e-03 3.01e+01  -6.0 1.73e+00  -4.5 2.61e-01 2.72e-01f  1
 159 -1.4225117e-01 8.46e-04 2.58e+01  -6.0 4.80e+00  -5.0 6.88e-01 1.42e-01f  1
iter    objective    inf_pr   inf_du lg(mu)  ||d||  lg(rg) alpha_du alpha_pr  ls
 160 -1.4238661e-01 4.46e-03 2.31e+01  -6.0 1.07e+01  -5.5 9.99e-01 1.08e-01f  1
 161 -1.4297900e-01 4.17e-02 1.71e+01  -6.0 2.16e+01  -6.0 1.00e+00 2.62e-01h  1
 162 -1.4382472e-01 8.12e-02 1.36e+01  -6.0 4.14e+01  -6.4 1.00e+00 2.13e-01h  1
 163 -1.4651726e-01 1.15e+00 1.39e+01  -6.0 1.18e+02  -6.9 1.00e+00 2.41e-01h  1
 164 -1.4989882e-01 7.26e+00 3.74e+01  -6.0 7.37e+02  -7.4 3.80e-01 9.85e-02h  1
 165 -1.5214866e-01 9.43e+00 5.29e+01  -6.0 2.01e+02  -7.0 4.66e-01 1.88e-01h  1
 166 -1.5276645e-01 1.22e+01 5.84e+01  -6.0 2.40e+02  -6.5 6.87e-02 1.27e-01h  1
 167 -1.5287658e-01 1.15e+01 3.92e+01  -6.0 1.88e+01  -6.1 5.36e-01 6.03e-02h  1
 168 -1.5397906e-01 1.21e+01 9.46e+01  -6.0 1.08e+02  -6.6 2.63e-02 3.95e-01h  1
 169 -1.5516593e-01 5.28e+00 6.60e+01  -6.0 3.27e+01  -6.2 2.80e-01 6.37e-01h  1
iter    objective    inf_pr   inf_du lg(mu)  ||d||  lg(rg) alpha_du alpha_pr  ls
 170 -1.5622305e-01 2.33e+00 2.65e+01  -6.0 1.33e+01  -5.7 9.37e-01 1.00e+00h  1
 171 -1.5678555e-01 2.42e+00 2.60e+01  -6.0 5.95e+01  -6.2 4.93e-01 1.33e-01h  1
 172 -1.5749825e-01 3.79e+00 1.48e+02  -6.0 6.95e+00  -5.8 1.00e+00 1.00e+00h  1
 173 -1.5777588e-01 3.27e+00 6.87e+01  -6.0 1.34e+01  -5.4 3.76e-01 1.39e-01h  1
 174 -1.5782292e-01 3.06e+00 4.73e+01  -6.0 6.16e+00  -5.8 8.10e-01 6.56e-02h  1
 175 -1.5824308e-01 3.39e+00 5.49e+01  -6.0 1.17e+01  -6.3 1.00e+00 3.07e-01h  1
 176 -1.5942800e-01 2.30e+00 1.05e+01  -6.0 2.61e+01  -6.8 6.74e-01 8.28e-01h  1
 177 -1.5967447e-01 2.03e+00 2.15e+01  -6.0 7.81e+01  -7.3 1.00e+00 1.22e-01h  1
 178 -1.6041089e-01 1.26e-01 4.14e+00  -6.0 2.88e+01  -6.8 1.00e+00 9.40e-01h  1
 179 -1.6180766e-01 2.57e-01 1.78e+01  -6.0 8.80e+01  -7.3 1.00e+00 5.97e-01h  1
iter    objective    inf_pr   inf_du lg(mu)  ||d||  lg(rg) alpha_du alpha_pr  ls
 180 -1.6721906e-01 1.21e+00 2.19e+01  -6.0 2.89e+02  -7.8 4.78e-01 7.46e-01h  1
 181 -1.6781174e-01 9.35e-01 3.44e+03  -6.0 1.19e+02  -7.4 5.48e-01 2.29e-01h  1
 182 -1.6791171e-01 9.27e-01 3.95e+03  -6.0 7.81e+02  -7.9 2.31e-01 9.83e-03h  1
 183 -1.6852006e-01 7.64e-01 5.10e+02  -6.0 1.26e+02  -7.4 1.00e+00 1.81e-01h  1
 184 -1.7132344e-01 6.71e-01 3.35e+03  -6.0 4.61e+02  -7.9 1.00e+00 2.73e-01h  1
 185 -1.7404883e-01 7.35e-01 5.45e+02  -6.0 1.74e+02  -7.5 1.00e+00 6.51e-01h  1
 186 -1.7549806e-01 6.34e-01 7.03e+03  -6.0 4.53e+02  -8.0 4.72e-01 1.37e-01h  1
 187 -1.8045592e-01 1.43e+00 5.43e+01  -6.0 1.79e+02  -7.5 1.00e+00 9.84e-01h  1
 188 -1.8182508e-01 1.33e+00 1.77e+05  -6.0 4.89e+02  -8.0 6.57e-03 1.16e-01h  1
 189 -1.8401738e-01 1.63e+00 1.62e+05  -6.0 1.78e+03  -8.5 1.18e-01 8.74e-02h  1
iter    objective    inf_pr   inf_du lg(mu)  ||d||  lg(rg) alpha_du alpha_pr  ls
 190 -1.8538446e-01 1.49e+00 1.44e+05  -6.0 5.19e+02  -8.1 1.26e-01 1.11e-01h  1
 191 -1.8762821e-01 1.49e+00 1.33e+05  -6.0 2.04e+03  -8.5 6.43e-02 7.53e-02h  1
 192 -1.9686429e-01 4.95e+00 5.02e+02  -6.0 5.19e+02  -8.1 2.63e-01 1.00e+00h  1
 193 -2.0065172e-01 5.22e+00 4.12e+02  -6.0 1.37e+03  -8.6 3.70e-01 1.82e-01h  1
 194 -2.0769722e-01 3.67e+00 5.23e+01  -6.0 4.77e+02  -8.2 8.74e-01 1.00e+00h  1
 195 -2.1008049e-01 4.99e+00 4.46e+01  -6.0 2.06e+03  -8.6 1.96e-01 1.67e-01h  1
 196 -2.1402032e-01 4.62e+00 4.53e+01  -6.0 5.12e+02  -8.2 1.11e-01 6.85e-01h  1
 197 -2.1508634e-01 6.86e+00 3.73e+01  -6.0 4.53e+03  -8.7 1.09e-01 4.73e-02h  1
 198 -2.1902520e-01 7.08e+00 1.06e+02  -6.0 5.91e+03  -9.2 6.84e-02 1.44e-01h  1
 199 -2.1939156e-01 6.84e+00 2.71e+02  -6.0 8.91e+02  -8.7 5.95e-01 3.81e-02h  1
iter    objective    inf_pr   inf_du lg(mu)  ||d||  lg(rg) alpha_du alpha_pr  ls
 200 -2.2393553e-01 5.16e+00 3.04e+01  -6.0 4.20e+02  -8.3 6.57e-01 8.68e-01h  1
 201 -2.2568637e-01 6.48e+00 3.09e+02  -6.0 1.61e+03  -8.8 3.60e-01 1.86e-01h  1
 202 -2.2731002e-01 1.07e+01 1.24e+02  -6.0 6.37e+02  -8.4 2.28e-01 3.13e-01h  1
 203 -2.2801366e-01 1.05e+01 4.61e+02  -6.0 7.87e+02  -8.8 3.04e-01 7.39e-02h  1
 204 -2.2923040e-01 1.09e+01 2.75e+02  -6.0 3.81e+02  -8.4 5.38e-02 2.24e-01h  1
 205 -2.2939175e-01 1.07e+01 1.35e+03  -6.0 6.68e+02  -8.9 4.19e-01 2.31e-02h  1
 206 -2.3281173e-01 1.08e+01 1.86e+02  -6.0 2.00e+03  -9.4 3.85e-02 3.49e-01h  1
 207 -2.3423804e-01 1.17e+01 7.60e+02  -6.0 8.98e+03  -9.8 8.90e-03 7.44e-02h  1
 208 -2.3885186e-01 1.93e+01 1.78e+03  -6.0 1.72e+03  -9.4 2.97e-01 4.68e-01f  1
 209 -2.3885140e-01 1.64e+01 3.86e+03  -6.0 2.47e+02  -7.2 5.01e-03 1.50e-01h  1
iter    objective    inf_pr   inf_du lg(mu)  ||d||  lg(rg) alpha_du alpha_pr  ls
 210 -2.3883774e-01 1.41e+01 3.31e+03  -6.0 1.37e+02  -7.7 1.25e-01 1.40e-01h  1
 211 -2.3925305e-01 1.04e+01 2.45e+03  -6.0 1.47e+02  -8.1 2.94e-01 2.62e-01h  1
 212 -2.3975578e-01 8.25e+00 3.84e+03  -6.0 5.51e+02  -8.6 4.25e-02 2.37e-01h  1
 213 -2.3974525e-01 7.88e+00 2.86e+04  -6.0 3.78e+00  -2.8 6.79e-03 4.44e-02h  1
 214 -2.3972744e-01 7.19e+00 3.98e+04  -6.0 4.22e+00  -3.3 1.33e-02 8.76e-02h  1
 215 -2.3971238e-01 6.80e+00 3.76e+04  -6.0 1.55e+00  -2.8 5.71e-02 5.49e-02h  1
 216 -2.3962104e-01 5.06e+00 2.79e+04  -6.0 5.07e+00  -3.3 9.54e-03 2.55e-01h  1
 217 -2.3954556e-01 3.30e+00 1.82e+04  -6.0 1.17e+00  -3.8 1.97e-01 3.47e-01h  1
 218 -2.3949868e-01 1.87e+00 1.03e+04  -6.0 2.11e+00  -4.3 6.12e-01 4.34e-01h  1
 219 -2.3943518e-01 7.12e-01 3.92e+03  -6.0 3.40e-01  -3.8 4.54e-01 6.19e-01h  1
iter    objective    inf_pr   inf_du lg(mu)  ||d||  lg(rg) alpha_du alpha_pr  ls
 220 -2.3942652e-01 3.76e-01 2.07e+03  -6.0 3.88e-01  -4.3 1.00e+00 4.72e-01h  1
 221 -2.3943954e-01 1.75e-01 9.67e+02  -6.0 8.21e-01  -4.8 8.43e-01 5.33e-01h  1
 222 -2.3944469e-01 5.53e-03 6.74e-01  -6.0 3.66e-01  -4.4 1.00e+00 1.00e+00h  1
 223 -2.3949271e-01 1.65e-02 8.85e-01  -6.0 1.02e+00  -4.8 8.70e-01 1.00e+00h  1
 224 -2.3960559e-01 2.22e-01 7.98e-01  -6.0 2.96e+00  -5.3 1.00e+00 1.00e+00h  1
 225 -2.3981313e-01 3.71e-01 8.46e+00  -6.0 7.31e+00  -5.8 5.91e-01 7.33e-01h  1
 226 -2.3986533e-01 3.00e-01 2.29e+01  -6.0 5.85e+00  -6.3 7.94e-01 2.24e-01h  1
 227 -2.3991746e-01 2.56e-01 2.15e+01  -6.0 8.58e+00  -6.7 4.95e-01 1.49e-01h  1
 228 -2.4012144e-01 1.88e-02 1.39e+00  -6.0 6.06e+00  -6.3 1.00e+00 9.87e-01h  1
 229 -2.4025360e-01 3.94e-01 8.16e+00  -6.0 8.77e+00  -6.8 4.23e-01 5.73e-01h  1
iter    objective    inf_pr   inf_du lg(mu)  ||d||  lg(rg) alpha_du alpha_pr  ls
 230 -2.4041886e-01 8.42e-01 3.70e+01  -6.0 2.21e+01  -7.3 1.00e+00 4.91e-01f  1
 231 -2.4054477e-01 6.57e-01 6.89e+01  -6.0 6.33e+01  -7.8 6.45e-01 2.33e-01h  1
 232 -2.4148153e-01 3.67e-01 5.65e+01  -6.0 1.68e+02  -8.2 1.00e+00 7.84e-01f  1
 233 -2.4226102e-01 3.90e-01 4.06e+01  -6.0 2.99e+02  -8.7 5.26e-01 3.85e-01h  1
 234 -2.4578615e-01 2.52e+00 4.97e+02  -6.0 7.43e+02  -9.2 2.80e-01 9.79e-01h  1
 235 -2.4619211e-01 2.33e+00 4.66e+02  -6.0 1.28e+03  -9.7 3.08e-01 9.95e-02h  1
 236 -2.4714928e-01 1.45e+00 2.30e+02  -6.0 6.41e+02  -9.2 8.55e-01 5.51e-01h  1
 237 -2.4750269e-01 1.33e+00 2.06e+02  -6.0 3.71e+03  -9.7 9.12e-02 1.05e-01h  1
 238 -2.4758548e-01 1.25e+00 1.92e+02  -6.0 9.55e+02  -9.3 4.21e-02 6.55e-02h  1
 239 -2.4759316e-01 1.15e+00 1.78e+02  -6.0 2.03e+02  -8.0 1.39e-01 7.52e-02h  1
iter    objective    inf_pr   inf_du lg(mu)  ||d||  lg(rg) alpha_du alpha_pr  ls
 240 -2.4769517e-01 1.44e-01 2.72e+02  -6.0 1.58e+02  -8.4 5.80e-01 8.90e-01f  1
 241 -2.4779308e-01 1.26e-01 2.21e+02  -6.0 6.67e+02  -8.9 1.46e-01 1.39e-01h  1
 242 -2.4840190e-01 4.26e-01 8.30e+01  -6.0 1.10e+03  -9.4 6.63e-01 6.62e-01h  1
 243 -2.4879601e-01 7.55e-01 6.71e+02  -6.0 2.37e+03  -9.9 1.87e-01 2.31e-01h  1
 244 -2.4910091e-01 1.23e+00 5.87e+02  -6.0 4.90e+03 -10.3 8.54e-02 9.88e-02h  1
Error in an AMPL evaluation. Run with "halt_on_ampl_error yes" to see details.
Warning: Cutting back alpha due to evaluation error
 245 -2.4909694e-01 1.15e+00 5.25e+02  -6.0 4.37e+02  -7.2 1.42e-01 6.99e-02h  2
 246 -2.4909305e-01 6.94e-01 3.18e+02  -6.0 1.68e+01  -6.8 4.23e-01 3.94e-01h  1
 247 -2.4907095e-01 6.01e-01 2.75e+02  -6.0 3.67e+01  -7.3 2.23e-01 1.35e-01h  1
 248 -2.4892665e-01 5.82e-02 3.72e+01  -6.0 1.82e+01  -7.7 3.30e-01 1.00e+00h  1
 249 -2.4911722e-01 1.96e-02 1.82e+01  -6.0 2.34e+01  -8.2 8.90e-01 1.00e+00H  1
iter    objective    inf_pr   inf_du lg(mu)  ||d||  lg(rg) alpha_du alpha_pr  ls
 250 -2.4910074e-01 3.34e-02 1.10e+01  -6.0 8.19e+01  -7.8 2.49e-01 3.36e-01h  1
 251 -2.4907428e-01 4.91e-02 1.70e+01  -6.0 1.65e+01  -8.3 4.47e-01 1.00e+00f  1
 252 -2.4908847e-01 3.46e-02 3.68e+00  -6.0 4.79e+01  -8.7 1.00e+00 8.10e-01h  1
 253 -2.4911596e-01 4.44e-01 1.24e-01  -6.0 1.41e+02  -9.2 1.00e+00 1.00e+00h  1
 254 -2.4916360e-01 3.65e+00 3.91e-01  -6.0 4.07e+02  -9.7 1.00e+00 1.00e+00h  1
 255 -2.4927548e-01 2.58e+01 3.16e+00  -6.0 1.09e+03 -10.2 9.91e-01 1.00e+00h  1
 256 -2.4932239e-01 2.56e+00 2.06e+00  -6.0 3.81e+02  -9.7 1.00e+00 1.00e+00h  1
 257 -2.4969678e-01 1.09e+01 1.78e+01  -6.0 3.52e+03 -10.2 2.82e-01 6.48e-01h  1
 258 -2.5008038e-01 1.29e+01 2.46e+01  -6.0 7.63e+04  -9.8 1.51e-03 8.14e-03h  1
 259 -2.4973230e-01 7.00e+00 3.24e+01  -6.0 2.09e+03 -10.3 4.03e-03 5.21e-01H  1
iter    objective    inf_pr   inf_du lg(mu)  ||d||  lg(rg) alpha_du alpha_pr  ls
 260 -2.5035725e-01 1.42e+01 4.58e+01  -6.0 1.10e+04  -9.8 2.77e-04 1.75e-01H  1
 261 -2.5035243e-01 1.42e+01 4.58e+01  -6.0 1.32e+06  -9.4 8.25e-05 2.98e-06h  9
 262 -2.5040850e-01 1.40e+01 4.49e+01  -6.0 1.92e+03  -9.9 3.11e-01 2.06e-02h  1
 263 -2.5215816e-01 4.81e+01 1.15e+02  -6.0 2.25e+03 -10.4 4.87e-01 6.48e-01h  1
 264 -2.5230015e-01 4.66e+01 5.37e+03  -6.0 6.44e+03 -10.9 1.12e-01 3.21e-02h  1
 265 -2.5282490e-01 4.04e+01 4.85e+03  -6.0 3.41e+03 -10.4 6.52e-02 1.59e-01h  1
 266 -2.5562323e-01 3.81e+01 9.45e+03  -6.0 1.39e+03 -10.0 4.27e-02 8.33e-01h  1
 267 -2.5571268e-01 3.71e+01 1.03e+04  -6.0 3.41e+03 -10.5 1.66e-02 2.77e-02h  1
 268 -2.5615287e-01 3.20e+01 1.08e+04  -6.0 1.56e+03 -10.1 6.10e-02 1.37e-01h  1
 269 -2.5624835e-01 3.16e+01 1.07e+04  -6.0 3.48e+03 -10.5 2.87e-02 1.18e-02h  1
iter    objective    inf_pr   inf_du lg(mu)  ||d||  lg(rg) alpha_du alpha_pr  ls
 270 -2.5632080e-01 3.09e+01 7.25e+03  -6.0 2.40e+03 -10.1 2.75e-01 2.30e-02h  1
 271 -2.5776851e-01 1.58e+01 3.79e+03  -6.0 2.36e+03  -9.7 2.06e-01 4.88e-01h  1
 272 -2.5845290e-01 1.36e+00 1.75e+02  -6.0 4.36e+02  -9.3 1.66e-01 1.00e+00h  1
 273 -2.5862672e-01 1.26e+00 1.37e+02  -6.0 5.88e+02  -8.8 7.48e-02 3.17e-02h  2
 274 -2.5888469e-01 2.06e+00 1.56e+02  -6.0 3.46e+02  -9.3 6.63e-01 1.00e+00h  1
 275 -2.5911822e-01 1.92e+01 6.71e+02  -6.0 1.05e+03  -9.8 2.47e-01 1.00e+00h  1
 276 -2.5911105e-01 6.04e+00 2.12e+02  -6.0 1.18e+02  -9.4 6.39e-01 6.88e-01h  1
 277 -2.5919188e-01 2.56e+00 7.98e+01  -6.0 3.40e+02  -9.8 1.00e+00 9.09e-01h  1
 278 -2.5920008e-01 3.59e+01 7.59e+01  -6.0 5.93e+04    -  4.59e-02 2.81e-02h  1
 279 -2.5919841e-01 3.34e+01 2.22e+02  -6.0 9.02e+03    -  8.91e-02 1.48e-01h  1
iter    objective    inf_pr   inf_du lg(mu)  ||d||  lg(rg) alpha_du alpha_pr  ls
 280 -2.5920756e-01 1.62e+01 2.23e+03  -6.0 6.57e+02 -10.3 8.50e-02 5.14e-01h  1
 281 -2.5922925e-01 1.26e+01 1.77e+03  -6.0 5.62e+02  -9.9 6.18e-01 2.38e-01h  1
 282 -2.5923811e-01 9.25e+00 1.28e+03  -6.0 8.41e+02 -10.4 1.00e+00 3.88e-01h  1
 283 -2.5925092e-01 4.28e+00 4.88e+02  -6.0 3.89e+02  -9.9 1.81e-01 6.29e-01h  1
 284 -2.5924704e-01 5.04e+00 4.27e+02  -6.0 2.86e+03    -  2.83e-01 1.32e-01h  1
 285 -2.5923856e-01 3.51e+00 2.83e+02  -6.0 7.37e+02    -  1.00e+00 3.05e-01h  1
 286 -2.5924452e-01 1.10e-01 3.23e+00  -6.0 5.41e+01  -8.6 6.69e-01 1.00e+00h  1
 287 -2.5921657e-01 1.46e-01 2.23e-01  -6.0 4.41e+02    -  1.00e+00 1.00e+00h  1
 288 -2.5921435e-01 8.83e-02 2.04e-03  -6.0 3.95e+01  -9.1 1.00e+00 1.00e+00h  1
 289 -2.5921433e-01 2.67e-01 2.50e-02  -6.0 1.34e+02  -9.6 1.00e+00 1.00e+00h  1
iter    objective    inf_pr   inf_du lg(mu)  ||d||  lg(rg) alpha_du alpha_pr  ls
 290 -2.5921421e-01 5.21e-01 5.11e+01  -6.0 9.61e+03    -  2.31e-01 1.38e-02h  2
 291 -2.5921032e-01 1.94e+00 2.02e+01  -6.0 8.03e+02    -  1.00e+00 4.60e-01H  1
 292 -2.5921448e-01 2.50e-01 2.45e+01  -6.0 1.30e+02    -  2.40e-01 1.00e+00h  1
 293 -2.5921430e-01 5.96e-04 9.04e-04  -6.0 6.68e+00  -8.2 1.00e+00 1.00e+00h  1
 294 -2.5921429e-01 3.64e-03 3.07e-04  -6.0 1.59e+01  -8.7 1.00e+00 1.00e+00h  1
 295 -2.5921419e-01 3.40e-02 2.90e-03  -6.0 4.86e+01  -9.2 1.00e+00 1.00e+00h  1
 296 -2.5921383e-01 3.16e-01 2.67e-02  -6.0 1.48e+02  -9.7 1.00e+00 1.00e+00h  1
 297 -2.5921230e-01 7.03e+00 3.69e+01  -6.0 4.14e+04    -  5.56e-02 1.65e-02h  1
 298 -2.5920326e-01 1.94e+01 2.48e+00  -6.0 1.18e+03    -  1.00e+00 1.00e+00h  1
 299 -2.5920353e-01 2.39e+01 2.42e+01  -6.0 1.50e+05    -  9.42e-03 3.92e-03h  2
iter    objective    inf_pr   inf_du lg(mu)  ||d||  lg(rg) alpha_du alpha_pr  ls
 300 -2.5921153e-01 4.32e+00 1.71e+01  -6.0 6.00e+02 -10.1 6.01e-01 1.00e+00h  1
 301 -2.5921346e-01 1.08e+01 4.98e+01  -6.0 6.85e+03    -  3.86e-01 1.08e-01h  2
 302 -2.5920899e-01 1.86e+01 1.46e+00  -6.0 1.23e+03 -10.6 1.00e+00 1.00e+00h  1
 303 -2.5921408e-01 7.26e+00 3.81e+00  -6.0 4.83e+02 -10.2 1.00e+00 6.71e-01h  1
 304 -2.5921447e-01 6.35e+00 2.65e+00  -6.0 3.13e+03    -  2.98e-02 4.16e-02H  1
 305 -2.5921626e-01 1.50e+00 1.06e-01  -6.0 3.55e+02    -  1.00e+00 1.00e+00h  1
 306 -2.5921620e-01 1.40e+00 6.70e-02  -6.0 3.48e+02    -  1.00e+00 1.00e+00h  1
 307 -2.5921616e-01 9.39e-03 6.86e-04  -6.0 2.71e+01    -  1.00e+00 1.00e+00h  1
 308 -2.5921616e-01 3.91e-05 1.67e-06  -6.0 1.83e+00    -  1.00e+00 1.00e+00h  1
 309 -2.5921616e-01 2.88e-10 1.74e-11  -6.0 3.88e-03    -  1.00e+00 1.00e+00h  1
iter    objective    inf_pr   inf_du lg(mu)  ||d||  lg(rg) alpha_du alpha_pr  ls
 310 -2.5971502e-01 1.32e+00 7.60e+01  -7.5 2.90e+03    -  4.77e-01 2.10e-01f  1
 311 -2.5991298e-01 1.70e+00 1.10e+02  -7.5 2.79e+03    -  4.21e-01 1.31e-01h  1
 312 -2.6034623e-01 4.60e+00 8.29e+01  -7.5 2.77e+03    -  4.37e-01 3.30e-01h  1
 313 -2.6065401e-01 7.13e+00 4.09e+01  -7.5 2.32e+03    -  7.55e-02 3.49e-01h  1
 314 -2.6070605e-01 6.81e+00 4.26e+01  -7.5 2.68e+03    -  1.80e-01 7.27e-02h  1
 315 -2.6076681e-01 6.43e+00 4.20e+01  -7.5 2.14e+02  -9.8 2.46e-01 1.19e-01h  1
 316 -2.6078514e-01 6.11e+00 1.14e+02  -7.5 1.72e+02  -9.3 6.81e-01 5.35e-02h  1
 317 -2.6100551e-01 6.84e+00 4.27e+01  -7.5 8.66e+02  -9.8 9.04e-02 6.85e-01h  1
 318 -2.6102798e-01 5.86e+00 2.03e+01  -7.5 1.74e+03    -  4.58e-01 1.78e-01h  1
 319 -2.6108063e-01 1.25e+00 8.59e+00  -7.5 3.31e+02 -10.3 1.00e+00 7.91e-01h  1
iter    objective    inf_pr   inf_du lg(mu)  ||d||  lg(rg) alpha_du alpha_pr  ls
 320 -2.6113685e-01 2.84e+00 1.64e+00  -7.5 1.10e+03    -  3.03e-01 1.00e+00h  1
 321 -2.6113707e-01 1.47e+00 3.70e-01  -7.5 5.79e+01 -10.8 1.00e+00 4.85e-01h  1
 322 -2.6113796e-01 8.41e-01 2.62e-01  -7.5 1.36e+02 -11.2 7.69e-01 4.56e-01h  1
 323 -2.6113668e-01 8.18e-01 2.54e-01  -7.5 5.03e+02 -11.7 1.13e-01 2.50e-01h  3
 324 -2.6113639e-01 7.34e-01 1.95e-01  -7.5 3.15e+02 -11.3 3.37e-01 1.25e-01h  4
 325 -2.6113431e-01 3.94e-01 3.98e-03  -7.5 1.82e+02 -10.9 1.00e+00 1.00e+00h  1
 326 -2.6113433e-01 4.52e-01 8.96e-02  -7.5 7.56e+02    -  3.91e-01 1.25e-01h  4
 327 -2.6113440e-01 3.77e-01 2.89e-03  -7.5 3.89e+02 -11.3 1.00e+00 1.00e+00H  1
 328 -2.6113462e-01 3.37e-01 1.03e-02  -7.5 6.10e+02 -11.8 1.00e+00 1.00e+00H  1
 329 -2.6113469e-01 7.06e-01 9.63e-01  -7.5 4.53e+03 -12.3 5.03e-01 3.87e-02h  5
iter    objective    inf_pr   inf_du lg(mu)  ||d||  lg(rg) alpha_du alpha_pr  ls
 330 -2.6113516e-01 1.28e+00 1.44e-02  -7.5 8.89e+02 -11.9 1.00e+00 1.00e+00H  1
 331 -2.6113596e-01 2.34e+01 5.54e-01  -7.5 8.39e+03 -12.4 2.63e-01 1.58e-01h  2
 332 -2.6113759e-01 3.95e+01 8.53e-02  -7.5 1.69e+03 -11.9 1.00e+00 1.00e+00h  1
 333 -2.6113887e-01 1.24e+01 9.54e-01  -7.5 8.88e+02    -  4.56e-02 1.00e+00h  1
 334 -2.6113870e-01 1.19e+01 2.32e+00  -7.5 2.36e+03    -  1.00e+00 6.14e-02h  1
 335 -2.6113806e-01 4.28e+00 2.57e-02  -7.5 5.47e+02    -  1.00e+00 1.00e+00h  1
 336 -2.6113832e-01 6.09e-01 4.03e-01  -7.5 2.00e+02    -  4.70e-02 1.00e+00h  1
 337 -2.6113835e-01 1.13e-02 2.51e-05  -7.5 2.71e+01    -  1.00e+00 1.00e+00h  1
 338 -2.6113954e-01 1.46e+01 4.59e-01  -7.5 9.99e+02 -11.5 2.22e-01 1.00e+00h  1
 339 -2.6114195e-01 5.29e+01 4.79e-01  -7.5 1.85e+03 -12.0 6.99e-01 1.00e+00h  1
iter    objective    inf_pr   inf_du lg(mu)  ||d||  lg(rg) alpha_du alpha_pr  ls
 340 -2.6114224e-01 1.79e+00 3.23e-02  -7.5 2.76e+02    -  1.00e+00 1.00e+00h  1
 341 -2.6114278e-01 3.02e+00 9.76e-03  -7.5 4.21e+02    -  1.00e+00 1.00e+00h  1
 342 -2.6114277e-01 4.91e-04 8.78e-05  -7.5 8.35e+00    -  1.00e+00 1.00e+00h  1
 343 -2.6114277e-01 9.81e-06 2.48e-07  -7.5 7.55e-01    -  1.00e+00 1.00e+00h  1
 344 -2.6114277e-01 3.05e-10 4.91e-13  -7.5 7.44e-05    -  1.00e+00 1.00e+00h  1
 345 -2.6114491e-01 1.53e+00 7.34e+00  -9.0 1.28e+03    -  5.79e-01 2.32e-01h  1
 346 -2.6114856e-01 5.20e+01 3.50e-01  -9.0 2.38e+03    -  4.79e-01 7.26e-01h  1
 347 -2.6114846e-01 1.93e+01 2.75e+00  -9.0 3.25e+02    -  6.01e-02 6.30e-01h  1
 348 -2.6114899e-01 7.65e+00 1.11e+00  -9.0 6.15e+02 -11.6 7.48e-01 1.00e+00h  1
 349 -2.6115060e-01 1.01e+02 1.07e+00  -9.0 8.54e+03    -  3.85e-02 3.48e-01h  1
iter    objective    inf_pr   inf_du lg(mu)  ||d||  lg(rg) alpha_du alpha_pr  ls
 350 -2.6115082e-01 1.62e+01 3.52e+00  -9.0 8.22e+02 -12.0 3.43e-03 1.00e+00h  1
 351 -2.6115190e-01 3.94e+00 2.04e-01  -9.0 4.02e+02 -11.6 8.08e-01 1.00e+00h  1
 352 -2.6115261e-01 1.11e+01 7.36e-02  -9.0 2.53e+03 -12.1 6.41e-01 2.34e-01h  1
 353 -2.6115277e-01 1.16e+01 1.30e-03  -9.0 9.44e+02 -12.6 1.00e+00 1.00e+00h  1
 354 -2.6115373e-01 8.14e+01 2.48e-02  -9.0 4.60e+03 -13.0 1.60e-01 5.16e-01h  1
 355 -2.6115373e-01 8.10e+01 3.83e+00  -9.0 2.44e+03    -  1.27e-01 5.18e-03h  1
 356 -2.6115399e-01 2.57e+00 3.68e+02  -9.0 2.56e+02    -  1.04e-02 9.70e-01h  1
 357 -2.6115403e-01 5.08e-01 3.09e-02  -9.0 1.25e+02 -11.7 1.07e-02 1.00e+00h  1
 358 -2.6115410e-01 7.74e-01 6.12e-03  -9.0 2.53e+02 -12.2 8.02e-01 1.00e+00h  1
 359 -2.6115527e-01 7.08e+01 4.12e-02  -9.0 2.45e+03 -12.7 6.82e-02 8.99e-01h  1
iter    objective    inf_pr   inf_du lg(mu)  ||d||  lg(rg) alpha_du alpha_pr  ls
 360 -2.6115460e-01 8.10e+01 5.41e+00  -9.0 4.21e+03 -12.2 1.18e-01 7.68e-01H  1
 361 -2.6115632e-01 6.99e+01 7.83e+01  -9.0 6.07e+03 -12.7 2.35e-04 4.84e-01H  1
 362 -2.6115628e-01 6.96e+01 7.79e+01  -9.0 1.11e+04 -12.3 1.88e-06 5.09e-03h  3
 363 -2.6115689e-01 1.04e+00 8.68e-01  -9.0 1.98e+02 -11.0 2.21e-01 1.00e+00h  1
 364 -2.6115715e-01 2.45e+00 3.99e-01  -9.0 2.30e+02 -11.4 4.41e-01 1.00e+00h  1
 365 -2.6115850e-01 2.62e+01 8.34e-02  -9.0 1.33e+03 -11.9 7.80e-01 1.00e+00h  1
 366 -2.6116074e-01 5.95e+01 6.84e-02  -9.0 3.17e+03 -12.4 9.63e-02 5.47e-01h  1
 367 -2.6116219e-01 8.11e+01 2.89e-01  -9.0 7.65e+03 -12.9 2.73e-01 3.15e-01h  1
 368 -2.6116221e-01 8.11e+01 2.39e-01  -9.0 2.09e+05    -  7.75e-03 1.89e-04h  6
 369 -2.6116307e-01 7.46e+01 8.61e-01  -9.0 7.87e+03    -  1.37e-02 8.64e-02h  2
iter    objective    inf_pr   inf_du lg(mu)  ||d||  lg(rg) alpha_du alpha_pr  ls
 370 -2.6116313e-01 7.41e+01 3.63e-01  -9.0 8.52e+03    -  9.49e-02 5.95e-03h  1
 371 -2.6116486e-01 5.88e+01 1.41e+00  -9.0 4.05e+03    -  4.40e-01 2.70e-01h  1
 372 -2.6116755e-01 4.69e+01 7.02e-01  -9.0 1.96e+03    -  4.84e-01 6.43e-01h  1
 373 -2.6117025e-01 4.26e+01 9.61e+01  -9.0 1.84e+03    -  7.81e-03 7.10e-01h  1
 374 -2.6117015e-01 3.80e+01 3.99e+02  -9.0 2.86e+03    -  3.69e-03 2.59e-01h  1
 375 -2.6117153e-01 5.27e+01 3.87e+02  -9.0 1.70e+03 -10.6 4.01e-03 1.00e+00h  1
 376 -2.6117309e-01 5.17e+01 1.54e+02  -9.0 2.73e+03    -  3.44e-02 6.01e-01h  1
 377 -2.6117419e-01 4.61e+01 9.22e+01  -9.0 3.33e+03    -  5.18e-02 4.01e-01h  1
 378 -2.6117435e-01 4.25e+01 7.53e+01  -9.0 4.93e+03    -  1.26e-02 1.83e-01H  1
 379 -2.6117454e-01 4.15e+01 7.35e+01  -9.0 1.15e+04    -  7.74e-02 2.35e-02h  2
iter    objective    inf_pr   inf_du lg(mu)  ||d||  lg(rg) alpha_du alpha_pr  ls
 380 -2.6117478e-01 4.09e+01 6.87e+01  -9.0 5.58e+03    -  1.61e-01 6.63e-02h  1
 381 -2.6117509e-01 3.40e+01 5.26e+01  -9.0 1.42e+03    -  3.31e-01 2.33e-01h  1
 382 -2.6117577e-01 2.78e+01 7.74e+01  -9.0 1.37e+03    -  3.08e-02 4.46e-01h  1
 383 -2.6117616e-01 1.99e+01 9.93e+01  -9.0 1.44e+03    -  1.06e-02 3.40e-01h  1
 384 -2.6117694e-01 4.31e+01 3.24e+01  -9.0 2.06e+03    -  1.19e-01 6.77e-01h  1
 385 -2.6117702e-01 4.00e+01 2.87e+01  -9.0 2.45e+03    -  1.44e-03 1.18e-01h  1
 386 -2.6117718e-01 1.54e+01 1.09e+01  -9.0 8.23e+02    -  9.66e-01 6.16e-01h  1
 387 -2.6117760e-01 1.93e+01 6.15e+00  -9.0 1.70e+03    -  4.71e-01 4.37e-01H  1
 388 -2.6117753e-01 8.32e+00 4.47e+00  -9.0 4.45e+02    -  3.33e-01 6.71e-01h  1
 389 -2.6117761e-01 1.81e+00 2.54e-04  -9.0 2.69e+02    -  1.00e+00 1.00e+00h  1
iter    objective    inf_pr   inf_du lg(mu)  ||d||  lg(rg) alpha_du alpha_pr  ls
 390 -2.6117761e-01 2.54e-03 3.99e-06  -9.0 8.48e+00    -  1.00e+00 1.00e+00h  1
 391 -2.6117761e-01 1.16e-04 1.48e-08  -9.0 2.20e+00    -  1.00e+00 1.00e+00h  1
 392 -2.6117761e-01 4.25e-10 3.12e-14  -9.0 2.39e-03    -  1.00e+00 1.00e+00h  1

Number of Iterations....: 392

                                   (scaled)                 (unscaled)
Objective...............:  -2.6117761132107015e-01   -2.6117761132107015e-01
Dual infeasibility......:   3.1192186561141161e-14    3.1192186561141161e-14
Constraint violation....:   4.2524932989014552e-10    4.2524932989014552e-10
Complementarity.........:   9.0909091190224506e-10    9.0909091190224506e-10
Overall NLP error.......:   9.0909091190224506e-10    9.0909091190224506e-10


Number of objective function evaluations             = 1019
Number of objective gradient evaluations             = 393
Number of equality constraint evaluations            = 1020
Number of inequality constraint evaluations          = 1020
Number of equality constraint Jacobian evaluations   = 394
Number of inequality constraint Jacobian evaluations = 394
Number of Lagrangian Hessian evaluations             = 392
Total CPU secs in IPOPT (w/o function evaluations)   =    965.059
Total CPU secs in NLP function evaluations           =     16.816

EXIT: Optimal Solution Found.
